NAME : Synth-n9-k2-s1
COMMENT : Synthetic small hard CVRP instance for quantum simulation
TYPE : CVRP
DIMENSION : 9
EDGE_WEIGHT_TYPE : EUC_2D
CAPACITY : 21
NODE_COORD_SECTION
1 50.000000 50.000000
2 45.042272 67.818816
3 35.593139 73.257351
4 17.797510 41.945242
5 35.654583 38.244364
6 56.049726 24.669789
7 70.788846 24.506356
8 66.923976 53.473842
9 70.135761 66.542460
DEMAND_SECTION
1 0
2 3
3 6
4 7
5 3
6 4
7 5
8 2
9 6
DEPOT_SECTION
1
-1
EOF
